minimize
- x1

subject to
2 x1 + 3 z1 + 2 z2 <= 9
9 x2 - z1 - 2 z2 <= 0
-3 x2 + 5 x3 - 3 x4 <= 4
-3 x2 + 9 x4 - 2 z3 <= 6
9 x5 - z2 + 2 z3 <= 8
- 4 x6 - 7 x7 + 2 z3 <= 3
5 x7 - 2 z2 <= 2
- x5 + 5 x7 + 4 z2 - 5 z3 <= 2
x1 - x2 + x3 - 2 x5 + x6 - z1 - 2 z2 + z3 - 2 z4 + 4 z5 <= 1
2 x2 - x4 + 3 x5 - 2 x6 - z1 + 5 z2 + z3 + 2 z4 - 6 z5 <= 2
-2 x1 - 2 x3 + x4 + x5 + z1 + 2 z2 - 2 z3 + 2 z4 - 2 z5 <= 1
x1 = 1
x3 = 1
x6 = 0

binary
x1
x2
x3
x4
x5
x6
x7
general
z1
z2
z3
z4
z5


end


